94 194 95 31 69 98 91 36 122 20 63 186 72 178 118 113 129 79 24 29 162 30 193 120 182 156 185 110 109 57 97 7 81 192 124 123 169 77 159 21 34 108 37 58 115 46 84 45 76 180 101 114 1 70 151 187 174 126 160 176 35 9 39 50 88 23 112 96 92 51 22 38 103 173 40 15 8 99 133 168 67 139 136 143 132 6 75 60 146 71 148 74 175 49 41 198 164 191 43 16 0 42 2 190 161 163 100 61 32 56 13 183 12 172 59 68 199 62 25 130 65 144 44 131 195 82 33 83 140 127 158 3 102 10 196 184 5 80 179 48 171 154 90 55 142 153 105 11 165 170 117 47 26 134 86 119 111 19 27 177 106 149 137 87 93 73 121 52 17 181 166 116 14 157 89 197 107 54 4 66 64 78 135 167 128 141 53 28 125 104 150 138 152 189 85 18 145 188 155 147 

